p cnf 188 276 
-1  2 0 
-3  2 0 
-1 -3  4 0 
-5  6 0 
-7  6 0 
-5 -7  8 0 
-2  9 0 
-6  9 0 
-2 -6  10 0 
-4  11 0 
-8  11 0 
-4 -8  12 0 
-11  13 0 
-10  13 0 
-11 -10  14 0 
-15  16 0 
-17  16 0 
-15 -17  18 0 
-19  20 0 
-21  20 0 
-19 -21  22 0 
-16  23 0 
-20  23 0 
-16 -20  24 0 
-18  25 0 
-22  25 0 
-18 -22  26 0 
-25  27 0 
-24  27 0 
-25 -24  28 0 
-9  29 0 
-23  29 0 
-9 -23  30 0 
-14  31 0 
-28  31 0 
-14 -28  32 0 
-31  33 0 
-30  33 0 
-31 -30  34 0 
-13  35 0 
-27  35 0 
-13 -27  36 0 
-12  37 0 
-26  37 0 
-12 -26  38 0 
-37  39 0 
-36  39 0 
-37 -36  40 0 
-35  41 0 
-33  41 0 
-35 -33  42 0 
-39  43 0 
-34  43 0 
-39 -34  44 0 
-40  45 0 
-32  45 0 
-40 -32  46 0 
-47  48 0 
-49  48 0 
-47 -49  50 0 
-51  52 0 
-53  52 0 
-51 -53  54 0 
-48  55 0 
-52  55 0 
-48 -52  56 0 
-50  57 0 
-54  57 0 
-50 -54  58 0 
-57  59 0 
-56  59 0 
-57 -56  60 0 
-61  62 0 
-63  62 0 
-61 -63  64 0 
-65  66 0 
-67  66 0 
-65 -67  68 0 
-62  69 0 
-66  69 0 
-62 -66  70 0 
-64  71 0 
-68  71 0 
-64 -68  72 0 
-71  73 0 
-70  73 0 
-71 -70  74 0 
-55  75 0 
-69  75 0 
-55 -69  76 0 
-60  77 0 
-74  77 0 
-60 -74  78 0 
-77  79 0 
-76  79 0 
-77 -76  80 0 
-59  81 0 
-73  81 0 
-59 -73  82 0 
-58  83 0 
-72  83 0 
-58 -72  84 0 
-83  85 0 
-82  85 0 
-83 -82  86 0 
-81  87 0 
-79  87 0 
-81 -79  88 0 
-85  89 0 
-80  89 0 
-85 -80  90 0 
-86  91 0 
-78  91 0 
-86 -78  92 0 
-29 -75  93 0 
-44  94 0 
-90  94 0 
-44 -90 0 
-94 -93  95 0 
-42 -88  96 0 
-46  97 0 
-92  97 0 
-46 -92 0 
-97  98 0 
-96  98 0 
-97 -96 0 
-98 -95  99 0 
-41 -87  100 0 
-45  101 0 
-91  101 0 
-45 -91 0 
-101 -100  102 0 
-43 -89  103 0 
-38  104 0 
-84  104 0 
-38 -84 0 
-104  105 0 
-103  105 0 
-104 -103 0 
-105  106 0 
-102  106 0 
-105 -102 0 
-106 -99 0 
 1  3 -107 0 
 1 -108 0 
 3 -108 0 
 5  7 -109 0 
 5 -110 0 
 7 -110 0 
 107  109 -111 0 
 107 -112 0 
 109 -112 0 
 108  110 -113 0 
 108 -114 0 
 110 -114 0 
 113  112 -115 0 
 113 -116 0 
 112 -116 0 
 15  17 -117 0 
 15 -118 0 
 17 -118 0 
 19  21 -119 0 
 19 -120 0 
 21 -120 0 
 117  119 -121 0 
 117 -122 0 
 119 -122 0 
 118  120 -123 0 
 118 -124 0 
 120 -124 0 
 123  122 -125 0 
 123 -126 0 
 122 -126 0 
 111  121 0 
 111 -127 0 
 121 -127 0 
 116  126 -128 0 
 116 -129 0 
 126 -129 0 
 128  127 -130 0 
 128 -131 0 
 127 -131 0 
 115  125 -132 0 
 115 -133 0 
 125 -133 0 
 114  124 -134 0 
 114 -135 0 
 124 -135 0 
 134  133 -136 0 
 134 -137 0 
 133 -137 0 
 132  130 -138 0 
 132 -139 0 
 130 -139 0 
 136  131 -140 0 
 136 -141 0 
 131 -141 0 
 137  129 -142 0 
 137 -143 0 
 129 -143 0 
 47  49 -144 0 
 47 -145 0 
 49 -145 0 
 51  53 -146 0 
 51 -147 0 
 53 -147 0 
 144  146 -148 0 
 144 -149 0 
 146 -149 0 
 145  147 -150 0 
 145 -151 0 
 147 -151 0 
 150  149 -152 0 
 150 -153 0 
 149 -153 0 
 61  63 -154 0 
 61 -155 0 
 63 -155 0 
 65  67 -156 0 
 65 -157 0 
 67 -157 0 
 154  156 -158 0 
 154 -159 0 
 156 -159 0 
 155  157 -160 0 
 155 -161 0 
 157 -161 0 
 160  159 -162 0 
 160 -163 0 
 159 -163 0 
 148  158 0 
 148 -164 0 
 158 -164 0 
 153  163 -165 0 
 153 -166 0 
 163 -166 0 
 165  164 -167 0 
 165 -168 0 
 164 -168 0 
 152  162 -169 0 
 152 -170 0 
 162 -170 0 
 151  161 -171 0 
 151 -172 0 
 161 -172 0 
 171  170 -173 0 
 171 -174 0 
 170 -174 0 
 169  167 -175 0 
 169 -176 0 
 167 -176 0 
 173  168 -177 0 
 173 -178 0 
 168 -178 0 
 174  166 -179 0 
 174 -180 0 
 166 -180 0 
 141  178 0 
 139  176 0 
 139 -181 0 
 176 -181 0 
 143  180 -182 0 
 182  181 0 
 138  175 0 
 138 -183 0 
 175 -183 0 
 142  179 -184 0 
 184  183 0 
 184 -185 0 
 183 -185 0 
 140  177 0 
 140 -186 0 
 177 -186 0 
 135  172 -187 0 
 187  186 -188 0 
 188  185 0 
